unsat
(:elim-unconstrained  2
 :max-memory          18.72
 :memory              18.43
 :nlsat-arith-var     32
 :nlsat-atoms         159
 :nlsat-bool-var      26
 :nlsat-clauses       60
 :nlsat-conflicts     923
 :nlsat-decisions     158
 :nlsat-propagations  3874
 :nlsat-stages        1416
 :num-allocs          133820
 :rlimit-count        87632
 :solve-eqs-elim-vars 31
 :solve-eqs-steps     176
 :time                0.04
 :total-time          0.05)
